Transportation_Problem.lp
\ENCODING=ISO-8859-1
\Problem name: ilog.cplex

Minimize
 obj: 5 x(0)(0)#0 + 2 x(0)(1)#1 + 3 x(0)(2)#2 + 9 x(0)(3)#3 + 7 x(1)(0)#4
      + x(1)(1)#5 + 12 x(1)(2)#6 + 4 x(1)(3)#7 + 8 x(2)(0)#8 + 15 x(2)(1)#9
      + 19 x(2)(2)#10 + 2 x(2)(3)#11
Subject To
 c1:  x(0)(0)#0 + x(0)(1)#1 + x(0)(2)#2 + x(0)(3)#3 <= 150
 c3:  x(1)(0)#4 + x(1)(1)#5 + x(1)(2)#6 + x(1)(3)#7 <= 20
 c5:  x(2)(0)#8 + x(2)(1)#9 + x(2)(2)#10 + x(2)(3)#11 <= 130
 c7:  x(0)(0)#0 + x(1)(0)#4 + x(2)(0)#8  = 135
 c9:  x(0)(1)#1 + x(1)(1)#5 + x(2)(1)#9  = 75
 c11: x(0)(2)#2 + x(1)(2)#6 + x(2)(2)#10  = 45
 c13: x(0)(3)#3 + x(1)(3)#7 + x(2)(3)#11  = 45
Bounds
 0 <= x(0)(0)#0 <= 2147483647
 0 <= x(0)(1)#1 <= 2147483647
 0 <= x(0)(2)#2 <= 2147483647
 0 <= x(0)(3)#3 <= 2147483647
 0 <= x(1)(0)#4 <= 2147483647
 0 <= x(1)(1)#5 <= 2147483647
 0 <= x(1)(2)#6 <= 2147483647
 0 <= x(1)(3)#7 <= 2147483647
 0 <= x(2)(0)#8 <= 2147483647
 0 <= x(2)(1)#9 <= 2147483647
 0 <= x(2)(2)#10 <= 2147483647
 0 <= x(2)(3)#11 <= 2147483647
Generals
 x(0)(0)#0  x(0)(1)#1  x(0)(2)#2  x(0)(3)#3  x(1)(0)#4  x(1)(1)#5  x(1)(2)#6 
 x(1)(3)#7  x(2)(0)#8  x(2)(1)#9  x(2)(2)#10  x(2)(3)#11 
End
